c Generated with `cnfgen`
c (C) 2012-2018 Massimo Lauria <lauria.massimo@gmail.com>
c https://massimolauria.net/cnfgen
c
c COMMAND LINE: cnfgen tseitin --gnd 60 5 --charge randomodd
c
p cnf 150 960
1 2 3 4 5 0
1 2 3 -4 -5 0
1 2 -3 4 -5 0
1 2 -3 -4 5 0
1 -2 3 4 -5 0
1 -2 3 -4 5 0
1 -2 -3 4 5 0
1 -2 -3 -4 -5 0
-1 2 3 4 -5 0
-1 2 3 -4 5 0
-1 2 -3 4 5 0
-1 2 -3 -4 -5 0
-1 -2 3 4 5 0
-1 -2 3 -4 -5 0
-1 -2 -3 4 -5 0
-1 -2 -3 -4 5 0
6 7 8 9 -10 0
6 7 8 -9 10 0
6 7 -8 9 10 0
6 7 -8 -9 -10 0
6 -7 8 9 10 0
6 -7 8 -9 -10 0
6 -7 -8 9 -10 0
6 -7 -8 -9 10 0
-6 7 8 9 10 0
-6 7 8 -9 -10 0
-6 7 -8 9 -10 0
-6 7 -8 -9 10 0
-6 -7 8 9 -10 0
-6 -7 8 -9 10 0
-6 -7 -8 9 10 0
-6 -7 -8 -9 -10 0
11 12 13 14 15 0
11 12 13 -14 -15 0
11 12 -13 14 -15 0
11 12 -13 -14 15 0
11 -12 13 14 -15 0
11 -12 13 -14 15 0
11 -12 -13 14 15 0
11 -12 -13 -14 -15 0
-11 12 13 14 -15 0
-11 12 13 -14 15 0
-11 12 -13 14 15 0
-11 12 -13 -14 -15 0
-11 -12 13 14 15 0
-11 -12 13 -14 -15 0
-11 -12 -13 14 -15 0
-11 -12 -13 -14 15 0
16 17 18 19 20 0
16 17 18 -19 -20 0
16 17 -18 19 -20 0
16 17 -18 -19 20 0
16 -17 18 19 -20 0
16 -17 18 -19 20 0
16 -17 -18 19 20 0
16 -17 -18 -19 -20 0
-16 17 18 19 -20 0
-16 17 18 -19 20 0
-16 17 -18 19 20 0
-16 17 -18 -19 -20 0
-16 -17 18 19 20 0
-16 -17 18 -19 -20 0
-16 -17 -18 19 -20 0
-16 -17 -18 -19 20 0
21 22 23 24 25 0
21 22 23 -24 -25 0
21 22 -23 24 -25 0
21 22 -23 -24 25 0
21 -22 23 24 -25 0
21 -22 23 -24 25 0
21 -22 -23 24 25 0
21 -22 -23 -24 -25 0
-21 22 23 24 -25 0
-21 22 23 -24 25 0
-21 22 -23 24 25 0
-21 22 -23 -24 -25 0
-21 -22 23 24 25 0
-21 -22 23 -24 -25 0
-21 -22 -23 24 -25 0
-21 -22 -23 -24 25 0
26 27 28 29 30 0
26 27 28 -29 -30 0
26 27 -28 29 -30 0
26 27 -28 -29 30 0
26 -27 28 29 -30 0
26 -27 28 -29 30 0
26 -27 -28 29 30 0
26 -27 -28 -29 -30 0
-26 27 28 29 -30 0
-26 27 28 -29 30 0
-26 27 -28 29 30 0
-26 27 -28 -29 -30 0
-26 -27 28 29 30 0
-26 -27 28 -29 -30 0
-26 -27 -28 29 -30 0
-26 -27 -28 -29 30 0
1 26 31 32 33 0
1 26 31 -32 -33 0
1 26 -31 32 -33 0
1 26 -31 -32 33 0
1 -26 31 32 -33 0
1 -26 31 -32 33 0
1 -26 -31 32 33 0
1 -26 -31 -32 -33 0
-1 26 31 32 -33 0
-1 26 31 -32 33 0
-1 26 -31 32 33 0
-1 26 -31 -32 -33 0
-1 -26 31 32 33 0
-1 -26 31 -32 -33 0
-1 -26 -31 32 -33 0
-1 -26 -31 -32 33 0
16 34 35 36 -37 0
16 34 35 -36 37 0
16 34 -35 36 37 0
16 34 -35 -36 -37 0
16 -34 35 36 37 0
16 -34 35 -36 -37 0
16 -34 -35 36 -37 0
16 -34 -35 -36 37 0
-16 34 35 36 37 0
-16 34 35 -36 -37 0
-16 34 -35 36 -37 0
-16 34 -35 -36 37 0
-16 -34 35 36 -37 0
-16 -34 35 -36 37 0
-16 -34 -35 36 37 0
-16 -34 -35 -36 -37 0
38 39 40 41 42 0
38 39 40 -41 -42 0
38 39 -40 41 -42 0
38 39 -40 -41 42 0
38 -39 40 41 -42 0
38 -39 40 -41 42 0
38 -39 -40 41 42 0
38 -39 -40 -41 -42 0
-38 39 40 41 -42 0
-38 39 40 -41 42 0
-38 39 -40 41 42 0
-38 39 -40 -41 -42 0
-38 -39 40 41 42 0
-38 -39 40 -41 -42 0
-38 -39 -40 41 -42 0
-38 -39 -40 -41 42 0
43 44 45 46 -47 0
43 44 45 -46 47 0
43 44 -45 46 47 0
43 44 -45 -46 -47 0
43 -44 45 46 47 0
43 -44 45 -46 -47 0
43 -44 -45 46 -47 0
43 -44 -45 -46 47 0
-43 44 45 46 47 0
-43 44 45 -46 -47 0
-43 44 -45 46 -47 0
-43 44 -45 -46 47 0
-43 -44 45 46 -47 0
-43 -44 45 -46 47 0
-43 -44 -45 46 47 0
-43 -44 -45 -46 -47 0
48 49 50 51 -52 0
48 49 50 -51 52 0
48 49 -50 51 52 0
48 49 -50 -51 -52 0
48 -49 50 51 52 0
48 -49 50 -51 -52 0
48 -49 -50 51 -52 0
48 -49 -50 -51 52 0
-48 49 50 51 52 0
-48 49 50 -51 -52 0
-48 49 -50 51 -52 0
-48 49 -50 -51 52 0
-48 -49 50 51 -52 0
-48 -49 50 -51 52 0
-48 -49 -50 51 52 0
-48 -49 -50 -51 -52 0
53 54 55 56 -57 0
53 54 55 -56 57 0
53 54 -55 56 57 0
53 54 -55 -56 -57 0
53 -54 55 56 57 0
53 -54 55 -56 -57 0
53 -54 -55 56 -57 0
53 -54 -55 -56 57 0
-53 54 55 56 57 0
-53 54 55 -56 -57 0
-53 54 -55 56 -57 0
-53 54 -55 -56 57 0
-53 -54 55 56 -57 0
-53 -54 55 -56 57 0
-53 -54 -55 56 57 0
-53 -54 -55 -56 -57 0
58 59 60 61 -62 0
58 59 60 -61 62 0
58 59 -60 61 62 0
58 59 -60 -61 -62 0
58 -59 60 61 62 0
58 -59 60 -61 -62 0
58 -59 -60 61 -62 0
58 -59 -60 -61 62 0
-58 59 60 61 62 0
-58 59 60 -61 -62 0
-58 59 -60 61 -62 0
-58 59 -60 -61 62 0
-58 -59 60 61 -62 0
-58 -59 60 -61 62 0
-58 -59 -60 61 62 0
-58 -59 -60 -61 -62 0
63 64 65 66 67 0
63 64 65 -66 -67 0
63 64 -65 66 -67 0
63 64 -65 -66 67 0
63 -64 65 66 -67 0
63 -64 65 -66 67 0
63 -64 -65 66 67 0
63 -64 -65 -66 -67 0
-63 64 65 66 -67 0
-63 64 65 -66 67 0
-63 64 -65 66 67 0
-63 64 -65 -66 -67 0
-63 -64 65 66 67 0
-63 -64 65 -66 -67 0
-63 -64 -65 66 -67 0
-63 -64 -65 -66 67 0
31 43 68 69 70 0
31 43 68 -69 -70 0
31 43 -68 69 -70 0
31 43 -68 -69 70 0
31 -43 68 69 -70 0
31 -43 68 -69 70 0
31 -43 -68 69 70 0
31 -43 -68 -69 -70 0
-31 43 68 69 -70 0
-31 43 68 -69 70 0
-31 43 -68 69 70 0
-31 43 -68 -69 -70 0
-31 -43 68 69 70 0
-31 -43 68 -69 -70 0
-31 -43 -68 69 -70 0
-31 -43 -68 -69 70 0
2 48 71 72 73 0
2 48 71 -72 -73 0
2 48 -71 72 -73 0
2 48 -71 -72 73 0
2 -48 71 72 -73 0
2 -48 71 -72 73 0
2 -48 -71 72 73 0
2 -48 -71 -72 -73 0
-2 48 71 72 -73 0
-2 48 71 -72 73 0
-2 48 -71 72 73 0
-2 48 -71 -72 -73 0
-2 -48 71 72 73 0
-2 -48 71 -72 -73 0
-2 -48 -71 72 -73 0
-2 -48 -71 -72 73 0
44 63 74 75 76 0
44 63 74 -75 -76 0
44 63 -74 75 -76 0
44 63 -74 -75 76 0
44 -63 74 75 -76 0
44 -63 74 -75 76 0
44 -63 -74 75 76 0
44 -63 -74 -75 -76 0
-44 63 74 75 -76 0
-44 63 74 -75 76 0
-44 63 -74 75 76 0
-44 63 -74 -75 -76 0
-44 -63 74 75 76 0
-44 -63 74 -75 -76 0
-44 -63 -74 75 -76 0
-44 -63 -74 -75 76 0
17 64 77 78 79 0
17 64 77 -78 -79 0
17 64 -77 78 -79 0
17 64 -77 -78 79 0
17 -64 77 78 -79 0
17 -64 77 -78 79 0
17 -64 -77 78 79 0
17 -64 -77 -78 -79 0
-17 64 77 78 -79 0
-17 64 77 -78 79 0
-17 64 -77 78 79 0
-17 64 -77 -78 -79 0
-17 -64 77 78 79 0
-17 -64 77 -78 -79 0
-17 -64 -77 78 -79 0
-17 -64 -77 -78 79 0
34 49 80 81 -82 0
34 49 80 -81 82 0
34 49 -80 81 82 0
34 49 -80 -81 -82 0
34 -49 80 81 82 0
34 -49 80 -81 -82 0
34 -49 -80 81 -82 0
34 -49 -80 -81 82 0
-34 49 80 81 82 0
-34 49 80 -81 -82 0
-34 49 -80 81 -82 0
-34 49 -80 -81 82 0
-34 -49 80 81 -82 0
-34 -49 80 -81 82 0
-34 -49 -80 81 82 0
-34 -49 -80 -81 -82 0
18 21 83 84 -85 0
18 21 83 -84 85 0
18 21 -83 84 85 0
18 21 -83 -84 -85 0
18 -21 83 84 85 0
18 -21 83 -84 -85 0
18 -21 -83 84 -85 0
18 -21 -83 -84 85 0
-18 21 83 84 85 0
-18 21 83 -84 -85 0
-18 21 -83 84 -85 0
-18 21 -83 -84 85 0
-18 -21 83 84 -85 0
-18 -21 83 -84 85 0
-18 -21 -83 84 85 0
-18 -21 -83 -84 -85 0
6 77 86 87 88 0
6 77 86 -87 -88 0
6 77 -86 87 -88 0
6 77 -86 -87 88 0
6 -77 86 87 -88 0
6 -77 86 -87 88 0
6 -77 -86 87 88 0
6 -77 -86 -87 -88 0
-6 77 86 87 -88 0
-6 77 86 -87 88 0
-6 77 -86 87 88 0
-6 77 -86 -87 -88 0
-6 -77 86 87 88 0
-6 -77 86 -87 -88 0
-6 -77 -86 87 -88 0
-6 -77 -86 -87 88 0
38 53 89 90 -91 0
38 53 89 -90 91 0
38 53 -89 90 91 0
38 53 -89 -90 -91 0
38 -53 89 90 91 0
38 -53 89 -90 -91 0
38 -53 -89 90 -91 0
38 -53 -89 -90 91 0
-38 53 89 90 91 0
-38 53 89 -90 -91 0
-38 53 -89 90 -91 0
-38 53 -89 -90 91 0
-38 -53 89 90 -91 0
-38 -53 89 -90 91 0
-38 -53 -89 90 91 0
-38 -53 -89 -90 -91 0
65 92 93 94 95 0
65 92 93 -94 -95 0
65 92 -93 94 -95 0
65 92 -93 -94 95 0
65 -92 93 94 -95 0
65 -92 93 -94 95 0
65 -92 -93 94 95 0
65 -92 -93 -94 -95 0
-65 92 93 94 -95 0
-65 92 93 -94 95 0
-65 92 -93 94 95 0
-65 92 -93 -94 -95 0
-65 -92 93 94 95 0
-65 -92 93 -94 -95 0
-65 -92 -93 94 -95 0
-65 -92 -93 -94 95 0
66 74 83 96 97 0
66 74 83 -96 -97 0
66 74 -83 96 -97 0
66 74 -83 -96 97 0
66 -74 83 96 -97 0
66 -74 83 -96 97 0
66 -74 -83 96 97 0
66 -74 -83 -96 -97 0
-66 74 83 96 -97 0
-66 74 83 -96 97 0
-66 74 -83 96 97 0
-66 74 -83 -96 -97 0
-66 -74 83 96 97 0
-66 -74 83 -96 -97 0
-66 -74 -83 96 -97 0
-66 -74 -83 -96 97 0
58 68 98 99 100 0
58 68 98 -99 -100 0
58 68 -98 99 -100 0
58 68 -98 -99 100 0
58 -68 98 99 -100 0
58 -68 98 -99 100 0
58 -68 -98 99 100 0
58 -68 -98 -99 -100 0
-58 68 98 99 -100 0
-58 68 98 -99 100 0
-58 68 -98 99 100 0
-58 68 -98 -99 -100 0
-58 -68 98 99 100 0
-58 -68 98 -99 -100 0
-58 -68 -98 99 -100 0
-58 -68 -98 -99 100 0
50 80 86 92 -101 0
50 80 86 -92 101 0
50 80 -86 92 101 0
50 80 -86 -92 -101 0
50 -80 86 92 101 0
50 -80 86 -92 -101 0
50 -80 -86 92 -101 0
50 -80 -86 -92 101 0
-50 80 86 92 101 0
-50 80 86 -92 -101 0
-50 80 -86 92 -101 0
-50 80 -86 -92 101 0
-50 -80 86 92 -101 0
-50 -80 86 -92 101 0
-50 -80 -86 92 101 0
-50 -80 -86 -92 -101 0
69 96 102 103 -104 0
69 96 102 -103 104 0
69 96 -102 103 104 0
69 96 -102 -103 -104 0
69 -96 102 103 104 0
69 -96 102 -103 -104 0
69 -96 -102 103 -104 0
69 -96 -102 -103 104 0
-69 96 102 103 104 0
-69 96 102 -103 -104 0
-69 96 -102 103 -104 0
-69 96 -102 -103 104 0
-69 -96 102 103 -104 0
-69 -96 102 -103 104 0
-69 -96 -102 103 104 0
-69 -96 -102 -103 -104 0
7 22 98 105 106 0
7 22 98 -105 -106 0
7 22 -98 105 -106 0
7 22 -98 -105 106 0
7 -22 98 105 -106 0
7 -22 98 -105 106 0
7 -22 -98 105 106 0
7 -22 -98 -105 -106 0
-7 22 98 105 -106 0
-7 22 98 -105 106 0
-7 22 -98 105 106 0
-7 22 -98 -105 -106 0
-7 -22 98 105 106 0
-7 -22 98 -105 -106 0
-7 -22 -98 105 -106 0
-7 -22 -98 -105 106 0
99 107 108 109 110 0
99 107 108 -109 -110 0
99 107 -108 109 -110 0
99 107 -108 -109 110 0
99 -107 108 109 -110 0
99 -107 108 -109 110 0
99 -107 -108 109 110 0
99 -107 -108 -109 -110 0
-99 107 108 109 -110 0
-99 107 108 -109 110 0
-99 107 -108 109 110 0
-99 107 -108 -109 -110 0
-99 -107 108 109 110 0
-99 -107 108 -109 -110 0
-99 -107 -108 109 -110 0
-99 -107 -108 -109 110 0
27 84 111 112 -113 0
27 84 111 -112 113 0
27 84 -111 112 113 0
27 84 -111 -112 -113 0
27 -84 111 112 113 0
27 -84 111 -112 -113 0
27 -84 -111 112 -113 0
27 -84 -111 -112 113 0
-27 84 111 112 113 0
-27 84 111 -112 -113 0
-27 84 -111 112 -113 0
-27 84 -111 -112 113 0
-27 -84 111 112 -113 0
-27 -84 111 -112 113 0
-27 -84 -111 112 113 0
-27 -84 -111 -112 -113 0
54 70 114 115 -116 0
54 70 114 -115 116 0
54 70 -114 115 116 0
54 70 -114 -115 -116 0
54 -70 114 115 116 0
54 -70 114 -115 -116 0
54 -70 -114 115 -116 0
54 -70 -114 -115 116 0
-54 70 114 115 116 0
-54 70 114 -115 -116 0
-54 70 -114 115 -116 0
-54 70 -114 -115 116 0
-54 -70 114 115 -116 0
-54 -70 114 -115 116 0
-54 -70 -114 115 116 0
-54 -70 -114 -115 -116 0
51 107 117 118 119 0
51 107 117 -118 -119 0
51 107 -117 118 -119 0
51 107 -117 -118 119 0
51 -107 117 118 -119 0
51 -107 117 -118 119 0
51 -107 -117 118 119 0
51 -107 -117 -118 -119 0
-51 107 117 118 -119 0
-51 107 117 -118 119 0
-51 107 -117 118 119 0
-51 107 -117 -118 -119 0
-51 -107 117 118 119 0
-51 -107 117 -118 -119 0
-51 -107 -117 118 -119 0
-51 -107 -117 -118 119 0
35 89 105 120 121 0
35 89 105 -120 -121 0
35 89 -105 120 -121 0
35 89 -105 -120 121 0
35 -89 105 120 -121 0
35 -89 105 -120 121 0
35 -89 -105 120 121 0
35 -89 -105 -120 -121 0
-35 89 105 120 -121 0
-35 89 105 -120 121 0
-35 89 -105 120 121 0
-35 89 -105 -120 -121 0
-35 -89 105 120 121 0
-35 -89 105 -120 -121 0
-35 -89 -105 120 -121 0
-35 -89 -105 -120 121 0
90 102 122 123 -124 0
90 102 122 -123 124 0
90 102 -122 123 124 0
90 102 -122 -123 -124 0
90 -102 122 123 124 0
90 -102 122 -123 -124 0
90 -102 -122 123 -124 0
90 -102 -122 -123 124 0
-90 102 122 123 124 0
-90 102 122 -123 -124 0
-90 102 -122 123 -124 0
-90 102 -122 -123 124 0
-90 -102 122 123 -124 0
-90 -102 122 -123 124 0
-90 -102 -122 123 124 0
-90 -102 -122 -123 -124 0
85 93 125 126 127 0
85 93 125 -126 -127 0
85 93 -125 126 -127 0
85 93 -125 -126 127 0
85 -93 125 126 -127 0
85 -93 125 -126 127 0
85 -93 -125 126 127 0
85 -93 -125 -126 -127 0
-85 93 125 126 -127 0
-85 93 125 -126 127 0
-85 93 -125 126 127 0
-85 93 -125 -126 -127 0
-85 -93 125 126 127 0
-85 -93 125 -126 -127 0
-85 -93 -125 126 -127 0
-85 -93 -125 -126 127 0
23 71 94 122 -128 0
23 71 94 -122 128 0
23 71 -94 122 128 0
23 71 -94 -122 -128 0
23 -71 94 122 128 0
23 -71 94 -122 -128 0
23 -71 -94 122 -128 0
23 -71 -94 -122 128 0
-23 71 94 122 128 0
-23 71 94 -122 -128 0
-23 71 -94 122 -128 0
-23 71 -94 -122 128 0
-23 -71 94 122 -128 0
-23 -71 94 -122 128 0
-23 -71 -94 122 128 0
-23 -71 -94 -122 -128 0
87 120 129 130 -131 0
87 120 129 -130 131 0
87 120 -129 130 131 0
87 120 -129 -130 -131 0
87 -120 129 130 131 0
87 -120 129 -130 -131 0
87 -120 -129 130 -131 0
87 -120 -129 -130 131 0
-87 120 129 130 131 0
-87 120 129 -130 -131 0
-87 120 -129 130 -131 0
-87 120 -129 -130 131 0
-87 -120 129 130 -131 0
-87 -120 129 -130 131 0
-87 -120 -129 130 131 0
-87 -120 -129 -130 -131 0
19 101 129 132 -133 0
19 101 129 -132 133 0
19 101 -129 132 133 0
19 101 -129 -132 -133 0
19 -101 129 132 133 0
19 -101 129 -132 -133 0
19 -101 -129 132 -133 0
19 -101 -129 -132 133 0
-19 101 129 132 133 0
-19 101 129 -132 -133 0
-19 101 -129 132 -133 0
-19 101 -129 -132 133 0
-19 -101 129 132 -133 0
-19 -101 129 -132 133 0
-19 -101 -129 132 133 0
-19 -101 -129 -132 -133 0
59 67 97 134 -135 0
59 67 97 -134 135 0
59 67 -97 134 135 0
59 67 -97 -134 -135 0
59 -67 97 134 135 0
59 -67 97 -134 -135 0
59 -67 -97 134 -135 0
59 -67 -97 -134 135 0
-59 67 97 134 135 0
-59 67 97 -134 -135 0
-59 67 -97 134 -135 0
-59 67 -97 -134 135 0
-59 -67 97 134 -135 0
-59 -67 97 -134 135 0
-59 -67 -97 134 135 0
-59 -67 -97 -134 -135 0
11 39 103 136 -137 0
11 39 103 -136 137 0
11 39 -103 136 137 0
11 39 -103 -136 -137 0
11 -39 103 136 137 0
11 -39 103 -136 -137 0
11 -39 -103 136 -137 0
11 -39 -103 -136 137 0
-11 39 103 136 137 0
-11 39 103 -136 -137 0
-11 39 -103 136 -137 0
-11 39 -103 -136 137 0
-11 -39 103 136 -137 0
-11 -39 103 -136 137 0
-11 -39 -103 136 137 0
-11 -39 -103 -136 -137 0
36 60 91 111 -138 0
36 60 91 -111 138 0
36 60 -91 111 138 0
36 60 -91 -111 -138 0
36 -60 91 111 138 0
36 -60 91 -111 -138 0
36 -60 -91 111 -138 0
36 -60 -91 -111 138 0
-36 60 91 111 138 0
-36 60 91 -111 -138 0
-36 60 -91 111 -138 0
-36 60 -91 -111 138 0
-36 -60 91 111 -138 0
-36 -60 91 -111 138 0
-36 -60 -91 111 138 0
-36 -60 -91 -111 -138 0
3 81 139 140 141 0
3 81 139 -140 -141 0
3 81 -139 140 -141 0
3 81 -139 -140 141 0
3 -81 139 140 -141 0
3 -81 139 -140 141 0
3 -81 -139 140 141 0
3 -81 -139 -140 -141 0
-3 81 139 140 -141 0
-3 81 139 -140 141 0
-3 81 -139 140 141 0
-3 81 -139 -140 -141 0
-3 -81 139 140 141 0
-3 -81 139 -140 -141 0
-3 -81 -139 140 -141 0
-3 -81 -139 -140 141 0
4 55 82 134 139 0
4 55 82 -134 -139 0
4 55 -82 134 -139 0
4 55 -82 -134 139 0
4 -55 82 134 -139 0
4 -55 82 -134 139 0
4 -55 -82 134 139 0
4 -55 -82 -134 -139 0
-4 55 82 134 -139 0
-4 55 82 -134 139 0
-4 55 -82 134 139 0
-4 55 -82 -134 -139 0
-4 -55 82 134 139 0
-4 -55 82 -134 -139 0
-4 -55 -82 134 -139 0
-4 -55 -82 -134 139 0
75 117 125 130 142 0
75 117 125 -130 -142 0
75 117 -125 130 -142 0
75 117 -125 -130 142 0
75 -117 125 130 -142 0
75 -117 125 -130 142 0
75 -117 -125 130 142 0
75 -117 -125 -130 -142 0
-75 117 125 130 -142 0
-75 117 125 -130 142 0
-75 117 -125 130 142 0
-75 117 -125 -130 -142 0
-75 -117 125 130 142 0
-75 -117 125 -130 -142 0
-75 -117 -125 130 -142 0
-75 -117 -125 -130 142 0
45 95 108 112 118 0
45 95 108 -112 -118 0
45 95 -108 112 -118 0
45 95 -108 -112 118 0
45 -95 108 112 -118 0
45 -95 108 -112 118 0
45 -95 -108 112 118 0
45 -95 -108 -112 -118 0
-45 95 108 112 -118 0
-45 95 108 -112 118 0
-45 95 -108 112 118 0
-45 95 -108 -112 -118 0
-45 -95 108 112 118 0
-45 -95 108 -112 -118 0
-45 -95 -108 112 -118 0
-45 -95 -108 -112 118 0
12 88 109 128 143 0
12 88 109 -128 -143 0
12 88 -109 128 -143 0
12 88 -109 -128 143 0
12 -88 109 128 -143 0
12 -88 109 -128 143 0
12 -88 -109 128 143 0
12 -88 -109 -128 -143 0
-12 88 109 128 -143 0
-12 88 109 -128 143 0
-12 88 -109 128 143 0
-12 88 -109 -128 -143 0
-12 -88 109 128 143 0
-12 -88 109 -128 -143 0
-12 -88 -109 128 -143 0
-12 -88 -109 -128 143 0
5 40 61 144 -145 0
5 40 61 -144 145 0
5 40 -61 144 145 0
5 40 -61 -144 -145 0
5 -40 61 144 145 0
5 -40 61 -144 -145 0
5 -40 -61 144 -145 0
5 -40 -61 -144 145 0
-5 40 61 144 145 0
-5 40 61 -144 -145 0
-5 40 -61 144 -145 0
-5 40 -61 -144 145 0
-5 -40 61 144 -145 0
-5 -40 61 -144 145 0
-5 -40 -61 144 145 0
-5 -40 -61 -144 -145 0
8 13 28 78 -140 0
8 13 28 -78 140 0
8 13 -28 78 140 0
8 13 -28 -78 -140 0
8 -13 28 78 140 0
8 -13 28 -78 -140 0
8 -13 -28 78 -140 0
8 -13 -28 -78 140 0
-8 13 28 78 140 0
-8 13 28 -78 -140 0
-8 13 -28 78 -140 0
-8 13 -28 -78 140 0
-8 -13 28 78 -140 0
-8 -13 28 -78 140 0
-8 -13 -28 78 140 0
-8 -13 -28 -78 -140 0
72 126 142 144 -146 0
72 126 142 -144 146 0
72 126 -142 144 146 0
72 126 -142 -144 -146 0
72 -126 142 144 146 0
72 -126 142 -144 -146 0
72 -126 -142 144 -146 0
72 -126 -142 -144 146 0
-72 126 142 144 146 0
-72 126 142 -144 -146 0
-72 126 -142 144 -146 0
-72 126 -142 -144 146 0
-72 -126 142 144 -146 0
-72 -126 142 -144 146 0
-72 -126 -142 144 146 0
-72 -126 -142 -144 -146 0
20 41 56 104 -114 0
20 41 56 -104 114 0
20 41 -56 104 114 0
20 41 -56 -104 -114 0
20 -41 56 104 114 0
20 -41 56 -104 -114 0
20 -41 -56 104 -114 0
20 -41 -56 -104 114 0
-20 41 56 104 114 0
-20 41 56 -104 -114 0
-20 41 -56 104 -114 0
-20 41 -56 -104 114 0
-20 -41 56 104 -114 0
-20 -41 56 -104 114 0
-20 -41 -56 104 114 0
-20 -41 -56 -104 -114 0
9 24 127 131 -135 0
9 24 127 -131 135 0
9 24 -127 131 135 0
9 24 -127 -131 -135 0
9 -24 127 131 135 0
9 -24 127 -131 -135 0
9 -24 -127 131 -135 0
9 -24 -127 -131 135 0
-9 24 127 131 135 0
-9 24 127 -131 -135 0
-9 24 -127 131 -135 0
-9 24 -127 -131 135 0
-9 -24 127 131 -135 0
-9 -24 127 -131 135 0
-9 -24 -127 131 135 0
-9 -24 -127 -131 -135 0
10 42 46 146 -147 0
10 42 46 -146 147 0
10 42 -46 146 147 0
10 42 -46 -146 -147 0
10 -42 46 146 147 0
10 -42 46 -146 -147 0
10 -42 -46 146 -147 0
10 -42 -46 -146 147 0
-10 42 46 146 147 0
-10 42 46 -146 -147 0
-10 42 -46 146 -147 0
-10 42 -46 -146 147 0
-10 -42 46 146 -147 0
-10 -42 46 -146 147 0
-10 -42 -46 146 147 0
-10 -42 -46 -146 -147 0
73 121 123 132 -148 0
73 121 123 -132 148 0
73 121 -123 132 148 0
73 121 -123 -132 -148 0
73 -121 123 132 148 0
73 -121 123 -132 -148 0
73 -121 -123 132 -148 0
73 -121 -123 -132 148 0
-73 121 123 132 148 0
-73 121 123 -132 -148 0
-73 121 -123 132 -148 0
-73 121 -123 -132 148 0
-73 -121 123 132 -148 0
-73 -121 123 -132 148 0
-73 -121 -123 132 148 0
-73 -121 -123 -132 -148 0
14 100 115 141 149 0
14 100 115 -141 -149 0
14 100 -115 141 -149 0
14 100 -115 -141 149 0
14 -100 115 141 -149 0
14 -100 115 -141 149 0
14 -100 -115 141 149 0
14 -100 -115 -141 -149 0
-14 100 115 141 -149 0
-14 100 115 -141 149 0
-14 100 -115 141 149 0
-14 100 -115 -141 -149 0
-14 -100 115 141 149 0
-14 -100 115 -141 -149 0
-14 -100 -115 141 -149 0
-14 -100 -115 -141 149 0
29 47 62 79 147 0
29 47 62 -79 -147 0
29 47 -62 79 -147 0
29 47 -62 -79 147 0
29 -47 62 79 -147 0
29 -47 62 -79 147 0
29 -47 -62 79 147 0
29 -47 -62 -79 -147 0
-29 47 62 79 -147 0
-29 47 62 -79 147 0
-29 47 -62 79 147 0
-29 47 -62 -79 -147 0
-29 -47 62 79 147 0
-29 -47 62 -79 -147 0
-29 -47 -62 79 -147 0
-29 -47 -62 -79 147 0
32 143 145 148 -150 0
32 143 145 -148 150 0
32 143 -145 148 150 0
32 143 -145 -148 -150 0
32 -143 145 148 150 0
32 -143 145 -148 -150 0
32 -143 -145 148 -150 0
32 -143 -145 -148 150 0
-32 143 145 148 150 0
-32 143 145 -148 -150 0
-32 143 -145 148 -150 0
-32 143 -145 -148 150 0
-32 -143 145 148 -150 0
-32 -143 145 -148 150 0
-32 -143 -145 148 150 0
-32 -143 -145 -148 -150 0
30 116 119 124 138 0
30 116 119 -124 -138 0
30 116 -119 124 -138 0
30 116 -119 -124 138 0
30 -116 119 124 -138 0
30 -116 119 -124 138 0
30 -116 -119 124 138 0
30 -116 -119 -124 -138 0
-30 116 119 124 -138 0
-30 116 119 -124 138 0
-30 116 -119 124 138 0
-30 116 -119 -124 -138 0
-30 -116 119 124 138 0
-30 -116 119 -124 -138 0
-30 -116 -119 124 -138 0
-30 -116 -119 -124 138 0
25 76 113 136 149 0
25 76 113 -136 -149 0
25 76 -113 136 -149 0
25 76 -113 -136 149 0
25 -76 113 136 -149 0
25 -76 113 -136 149 0
25 -76 -113 136 149 0
25 -76 -113 -136 -149 0
-25 76 113 136 -149 0
-25 76 113 -136 149 0
-25 76 -113 136 149 0
-25 76 -113 -136 -149 0
-25 -76 113 136 149 0
-25 -76 113 -136 -149 0
-25 -76 -113 136 -149 0
-25 -76 -113 -136 149 0
33 37 57 110 -133 0
33 37 57 -110 133 0
33 37 -57 110 133 0
33 37 -57 -110 -133 0
33 -37 57 110 133 0
33 -37 57 -110 -133 0
33 -37 -57 110 -133 0
33 -37 -57 -110 133 0
-33 37 57 110 133 0
-33 37 57 -110 -133 0
-33 37 -57 110 -133 0
-33 37 -57 -110 133 0
-33 -37 57 110 -133 0
-33 -37 57 -110 133 0
-33 -37 -57 110 133 0
-33 -37 -57 -110 -133 0
15 52 106 137 150 0
15 52 106 -137 -150 0
15 52 -106 137 -150 0
15 52 -106 -137 150 0
15 -52 106 137 -150 0
15 -52 106 -137 150 0
15 -52 -106 137 150 0
15 -52 -106 -137 -150 0
-15 52 106 137 -150 0
-15 52 106 -137 150 0
-15 52 -106 137 150 0
-15 52 -106 -137 -150 0
-15 -52 106 137 150 0
-15 -52 106 -137 -150 0
-15 -52 -106 137 -150 0
-15 -52 -106 -137 150 0
